7

    2   3   4   100 100 4   3
    3   4   3   4   100 100 4
    4   3   4   3   4   100 100
    100 4   3   4   3   4   100
    100 100 4   3   2   3   4
    4   100 100 4   3   4   3
    3   4   100 100 4   3   2
    
    4   5   0   0   0   0   0
    5   5   6   0   0   0   0
    0   6   6   4   0   0   0
    0   0   4   5   4   0   0
    0   0   0   4   6   5   0
    0   0   0   0   5   5   6
    0   0   0   0   0   6   5